unsat
(:added-eqs                   2443158
 :arith-eq-adapter            4293
 :arith-bound-propagations-lp 129217
 :arith-conflicts             371
 :arith-diseq                 152625
 :arith-fixed-eqs             179047
 :arith-lower                 109233
 :arith-make-feasible         57167
 :arith-max-columns           1382
 :arith-max-rows              781
 :arith-offset-eqs            48445
 :arith-upper                 229541
 :binary-propagations         11250715
 :conflicts                   22287
 :decisions                   1395041
 :del-clause                  17497
 :elim-unconstrained          2
 :max-memory                  57.12
 :memory                      37.47
 :minimized-lits              254827
 :mk-bool-var                 24611
 :mk-clause                   33857
 :mk-clause-binary            64850
 :num-allocs                  340454801
 :num-checks                  1
 :propagations                14738598
 :restarts                    132
 :rlimit-count                43065656
 :time                        13.44
 :total-time                  13.65)
